;; unsat

(declare-const x1 sl.list.loc)
(declare-const x2 sl.list.loc)
(declare-const x3 sl.list.loc)
(declare-const x4 sl.list.loc)
(declare-const x5 sl.list.loc)
(declare-const x6 sl.list.loc)
(declare-const x7 sl.list.loc)
(declare-const x8 sl.list.loc)
(declare-const x9 sl.list.loc)
(declare-const x10 sl.list.loc)
(declare-const x11 sl.list.loc)
(declare-const x12 sl.list.loc)
(declare-const x13 sl.list.loc)

(assert (sl.sepcon (sl.sepcon (sl.sepcon (sl.sepcon (sl.sepcon (sl.sepcon (sl.sepcon (sl.sepcon (sl.sepcon (sl.sepcon (sl.sepcon (sl.sepcon (sl.list.eq sl.list.null sl.list.null)
 (sl.list.neq x6 x8)
)
 (sl.list.neq x6 x12)
)
 (sl.list.neq x11 x12)
)
 (sl.list.neq x7 x13)
)
 (sl.list.neq x9 x12)
)
 (sl.list.neq x8 x9)
)
 (sl.list.neq x1 x7)
)
 (sl.list.neq x10 x11)
)
 (sl.list.neq x5 x6)
)
 (sl.list.neq x5 x7)
)
 (sl.list.neq x5 x12)
)
 (sl.sepcon (sl.sepcon (sl.sepcon (sl.sepcon (sl.sepcon (sl.sepcon (sl.sepcon (sl.sepcon (sl.sepcon (sl.list.seg x5 x10)
 (sl.list.seg x13 x1)
)
 (sl.list.seg x10 x6)
)
 (sl.list.seg x4 x8)
)
 (sl.list.seg x8 x5)
)
 (sl.list.seg x9 x2)
)
 (sl.list.seg x7 x5)
)
 (sl.list.seg x7 x13)
)
 (sl.list.seg x3 x12)
)
 (sl.list.seg x11 x9)
)
)
)

